32      4       
10      10      10      10      
0       0       0       0       0       3       2       6       31      
1       1       1       1       0       3       3       11      18      
5       2       6       0       1       3       4       12      17      
5       2       0       3       2       1       5       
2       4       4       8       0       2       7       30      
6       0       8       3       5       4       10      11      26      30      
10      6       2       0       5       1       8       
4       2       0       4       6       1       9       
6       4       3       6       0       2       10      26      
8       0       5       6       4       2       13      23      
2       0       1       2       5       2       13      23      
7       4       2       0       4       1       13      
8       0       3       3       6       1       14      
2       2       0       4       5       1       15      
4       3       0       5       2       1       16      
4       5       0       5       5       4       19      22      28      29      
1       0       5       2       4       4       20      23      28      29      
6       3       0       2       3       2       19      28      
4       6       5       3       0       1       20      
1       5       0       4       5       1       21      
3       4       6       0       4       1       24      
10      7       0       8       3       1       24      
5       4       2       0       3       1       24      
2       3       0       5       3       1       25      
4       3       6       0       5       1       27      
8       3       0       2       1       1       28      
1       0       4       4       6       1       32      
10      5       0       2       5       1       32      
4       9       5       0       5       1       32      
6       0       4       5       4       1       32      
1       5       0       5       3       1       32      
0       0       0       0       0       0       
